solution status: optimal solution found
objective value:                                    0
$_20__1_y                                          16 	(obj:0)
$_20__1_z                                          22 	(obj:0)
$_19__1_y                                          16 	(obj:0)
$_19__1_z                                          12 	(obj:0)
$_17__1_y                                          24 	(obj:0)
$_17__1_z                                          22 	(obj:0)
$_24__1_y                                          21 	(obj:0)
$_24__1_z                                          21 	(obj:0)
$_26__1_y                                          16 	(obj:0)
$_26__1_z                                          14 	(obj:0)
thingy.collect_pinholes[7].hole_y                   15 	(obj:0)
thingy.collect_pinholes[7].hole_z                   19 	(obj:0)
$_21__1_y                                          19 	(obj:0)
$_21__1_z                                          12 	(obj:0)
thingy.collect_pinholes[9].hole_y                   16 	(obj:0)
thingy.collect_pinholes[9].hole_z                   19 	(obj:0)
thingy.collect_pinholes[5].hole_y                   18 	(obj:0)
thingy.collect_pinholes[5].hole_z                   17 	(obj:0)
$_18__1_y                                          22 	(obj:0)
$_18__1_z                                          18 	(obj:0)
thingy.collect_pinholes[8].hole_y                   14 	(obj:0)
thingy.collect_pinholes[8].hole_z                   19 	(obj:0)
thingy.collect_pinholes[2].hole_y                   18 	(obj:0)
thingy.collect_pinholes[2].hole_z                    9 	(obj:0)
thingy.collect_pinholes[1].hole_y                   15 	(obj:0)
thingy.collect_pinholes[1].hole_z                    9 	(obj:0)
$_27__1_y                                          19 	(obj:0)
$_27__1_z                                          21 	(obj:0)
thingy.ctrl_collect_hole_y                         17 	(obj:0)
thingy.ctrl_collect_hole_z                         12 	(obj:0)
$_28__1_y                                          22 	(obj:0)
$_28__1_z                                          20 	(obj:0)
thingy.collect_pinholes[6].hole_y                   14 	(obj:0)
thingy.collect_pinholes[6].hole_z                   22 	(obj:0)
thingy.collect_pinholes[4].hole_y                   19 	(obj:0)
thingy.collect_pinholes[4].hole_z                   17 	(obj:0)
$_25__1_y                                          18 	(obj:0)
$_25__1_z                                           6 	(obj:0)
thingy.flush_collect_hole_y                        15 	(obj:0)
thingy.flush_collect_hole_z                        17 	(obj:0)
$_22__1_y                                          21 	(obj:0)
$_22__1_z                                          22 	(obj:0)
thingy.collect_pinholes[0].hole_y                   21 	(obj:0)
thingy.collect_pinholes[0].hole_z                   16 	(obj:0)
$_23__1_y                                          20 	(obj:0)
$_23__1_z                                          12 	(obj:0)
thingy.collect_pinholes[3].hole_y                   18 	(obj:0)
thingy.collect_pinholes[3].hole_z                   16 	(obj:0)
